SDVRP instances/p11/p11_3070_tsplib0.txt
NAME: .\SDVRP instances\p11\p11_3070
BEST_KNOWN: 0
COMMENT: 0
DIMENSION: 121
CAPACITY: 200
EDGE_WEIGHT_FORMAT: FUNCTION
EDGE_WEIGHT_TYPE: EXACT_2D
NODE_COORD_SECTION
1 0 0
2 15 -44
3 15 -42
4 21 -40
5 22 -40
6 21 -38
7 22 -36
8 24 -36
9 36 -36
10 25 -38
11 24 -39
12 25 -40
13 37 -39
14 30 -40
15 29 -42
16 26 -42
17 63 -39
18 63 -37
19 14 -9
20 66 -39
21 66 -35
22 66 -32
23 68 -42
24 68 -36
25 69 -42
26 69 -40
27 69 -34
28 72 -42
29 72 -38
30 80 -30
31 74 -42
32 74 -40
33 74 -36
34 75 -44
35 77 -40
36 75 -37
37 77 -38
38 76 -4
39 76 -1
40 76 1
41 75 10
42 79 -2
43 79 1
44 79 7
45 82 -3
46 82 7
47 84 -3
48 84 -1
49 84 3
50 86 -3
51 89 1
52 89 5
53 73 35
54 73 38
55 75 36
56 75 40
57 75 44
58 77 35
59 77 41
60 80 32
61 80 43
62 83 37
63 83 39
64 83 44
65 84 41
66 85 35
67 89 44
68 27 38
69 40 35
70 25 40
71 25 42
72 34 41
73 36 44
74 36 38
75 36 42
76 36 44
77 38 38
78 40 40
79 40 43
80 44 41
81 44 45
82 0 -10
83 0 -5
84 8 -15
85 7 -10
86 6 -7
87 4 -5
88 5 -3
89 1 -3
90 8 -5
91 11 -6
92 10 -5
93 8 -4
94 10 -1
95 12 -1
96 6 0
97 10 0
98 15 0
99 20 10
100 10 5
101 12 6
102 8 4
103 6 3
104 10 10
105 8 8
106 4 5
107 5 6
108 6 9
109 18 -12
110 23 -7
111 20 5
112 3 -5
113 5 -9
114 8 -14
115 15 -8
116 20 1
117 15 7
118 6 -12
119 15 -10
120 -5 -5
121 -5 5
DEMAND_SECTION
1 0
2 128
3 91
4 78
5 104
6 132
7 128
8 99
9 68
10 76
11 62
12 124
13 91
14 97
15 101
16 116
17 83
18 66
19 100
20 128
21 103
22 68
23 110
24 112
25 106
26 123
27 118
28 62
29 122
30 72
31 68
32 128
33 124
34 126
35 77
36 127
37 98
38 122
39 98
40 98
41 126
42 75
43 65
44 110
45 113
46 130
47 82
48 99
49 94
50 127
51 109
52 113
53 112
54 66
55 133
56 119
57 118
58 84
59 116
60 92
61 87
62 130
63 81
64 85
65 83
66 88
67 98
68 128
69 67
70 138
71 129
72 135
73 131
74 127
75 139
76 64
77 86
78 106
79 117
80 105
81 124
82 112
83 82
84 114
85 111
86 138
87 122
88 138
89 124
90 128
91 69
92 125
93 106
94 74
95 135
96 114
97 123
98 121
99 94
100 121
101 68
102 113
103 123
104 120
105 136
106 95
107 77
108 67
109 104
110 85
111 133
112 133
113 113
114 61
115 84
116 115
117 91
118 89
119 126
120 121
121 134
DEPOT_SECTION
1
-1
EOF
