SDVRP instances/p11/p11_3070_tsplib0.sol
120 -1 -2 4 -3 15 -5 10 -6 113 -7 14 -8 25 -9 11 -12 24 -13 20 -16 22 -17 19 -18 -21 32 -23 109 -26 90 -27 31 -28 34 -29 35 -30 33 -36 38 -37 93 -39 59 -40 -41 44 -42 49 -43 65 -45 -46 50 -47 48 -51 57 -52 60 -53 55 -54 -56 62 -58 64 -61 100 -63 66 -67 107 -68 80 -69 -70 -71 -72 75 -73 -74 -76 77 -78 -79 98 -81 82 -83 -84 117 -85 -86 -87 -88 -89 -91 -92 -94 -95 -96 -97 -99 -101 -102 -103 -104 -105 -106 -108 114 -110 -111 -112 -115 -116 -118 -119 -120 0 





OBJ=
7765.788
BEST_KNOWN=
0.000